(set-logic ALL)
(set-option :produce-models true)
(declare-sort BoundSet 0)
(declare-sort UnboundSet 0)
(declare-fun IsAsian (BoundSet) Bool)
(declare-fun IsWearingColorfulClothing (BoundSet) Bool)
(assert (not (=> (and (exists ((a BoundSet)) (exists ((b BoundSet)) (and (IsAsian b) (IsWearingColorfulClothing a)))) (and (forall ((e BoundSet)) (forall ((d BoundSet)) (=> (IsAsian d) (IsWearingColorfulClothing e)))) (forall ((f BoundSet)) (forall ((g BoundSet)) (=> (IsWearingColorfulClothing f) (IsAsian g)))))) (exists ((a BoundSet)) (IsWearingColorfulClothing a)))))
(check-sat)
(get-model)